Assets/LKHProbs~/skull.23.tsp
NAME : GeneratedProblem
COMMENT : SVGCrosshatch
TYPE : TSP
DIMENSION : 20
EDGE_WEIGHT_TYPE : EUC_2D
NODE_COORD_SECTION
1 7200 10500
2 7300 10500
3 7300 10600
4 7300 10700
5 7400 10500
6 7400 10600
7 7400 10700
8 7500 10500
9 7500 10600
10 7500 10700
11 7600 10500
12 7600 10600
13 7600 10700
14 7700 10500
15 7700 10600
16 7700 10700
17 7800 10500
18 7900 10500
19 8000 10500
20 8100 10500
EOF
