Assets/LKHProbs~/skull.23.out.txt
NAME : GeneratedProblem.2388.tour
COMMENT : Length = 2388
COMMENT : Found by LKH [Keld Helsgaun] Sun Nov 25 13:17:42 2018
TYPE : TOUR
DIMENSION : 20
TOUR_SECTION
1
2
5
8
11
12
15
14
17
18
19
20
16
13
10
9
6
7
4
3
-1
EOF
